(declare-fun v2 () (_ BitVec 14))
(declare-fun v7 () (_ BitVec 11))
(assert
(let (($e24 (_ bv0 3)))
(let (($e27 (_ bv0    13)))
(let (($e187 (   extract        v7)))
(let (($e671 (concat $e24 v7   )))
(let (($e672 (bvand $e671 v2)))
(let (($e829 (concat $e27 true  )))
(let (($e830 (bvand $e829 $e672)))
             (ite        $e187  $e672 $e830)
                                                                                                                                                                                                                                                                                                                                                                                                                                                                                                                                                                                                                                                                                                                                                                                                                                                                                                                                                                                                                                                                                                                                                                                                                                                                                                                                                                                                                                                                                                                                                                                                                                                                                                                                                                                                                                                                                                                                                                                                                                                                                                                                                                                                                                                                                                                                                                                                                                                                                                                                                                                                                                                                                                                                                                                                                                                                                                                                                                                                                                                                                                                                                                                                                                                                                                                                                                                                                                                                                                                                                                                                                                                                                                                                                                                                                                                ))                                                                                                                                                            ))                                                                                                                                                                                                                                                                                                                                                                                                                                                                                                   )                                                                                                                                                )  )                       )
